000 000 000 000 000 000 -99 000 -99 -99 -99 -99 -99 -99 -99 -99 -99 -99 000 000 000 000 000 000 000 000 000 000 000 -99 -99
000 000 000 000 000 000 000 000 000 -99 -99 -99 -99 -99 -99 -99 -99 -99 -99 000 000 000 000 000 000 000 000 000 000 -99 -99
000 000 000 000 000 000 000 000 000 -99 -99 -99 -99 -99 000 -99 -99 -99 -99 000 000 000 000 000 000 000 000 000 000 -99 -99
000 000 000 000 000 000 000 000 000 000 -99 000 000 -99 000 000 -99 -99 000 000 000 000 000 000 000 000 000 000 000 -99 -99
000 000 000 000 000 000 000 000 000 000 -99 000 000 000 -99 000 000 000 000 -99 000 000 000 000 000 000 000 000 000 -99 000
000 000 000 000 000 000 000 000 000 000 -99 -99 000 000 -99 000 000 000 000 000 000 000 000 000 000 000 -99 -99 -99 -99 000
000 000 000 000 000 000 000 000 000 000 -99 -99 000 000 -99 000 000 000 000 000 000 000 000 000 000 000 -99 -99 -99 -99 -99
000 000 000 000 000 000 000 000 000 000 000 -99 -99 -99 000 000 000 007 000 000 001 001 001 000 000 000 -99 -99 -99 -99 -99
000 000 000 000 000 000 -99 000 000 000 000 000 -99 -99 000 000 003 035 010 010 009 003 001 000 000 000 000 000 -99 000 -99
000 000 000 000 000 000 -99 000 000 000 000 000 000 000 000 002 036 114 098 075 048 006 001 000 000 000 000 000 000 000 000
000 000 000 000 000 -99 000 000 000 000 000 000 000 001 000 001 024 061 064 118 056 012 001 000 000 000 000 000 000 000 000
000 000 000 000 000 000 000 000 000 000 000 000 000 001 000 001 015 056 087 089 037 011 000 000 000 000 000 000 000 000 000
000 000 000 000 000 000 000 000 000 000 000 000 000 002 001 001 003 014 044 019 010 001 001 000 000 000 000 000 000 000 000
000 000 000 000 000 000 000 000 000 000 000 000 000 000 000 000 001 003 014 011 002 000 001 000 000 000 000 000 000 000 000
000 000 000 -99 000 000 000 000 000 000 000 000 000 000 000 000 000 001 002 000 000 000 001 000 000 000 000 000 000 000 000
000 -99 -99 -99 000 000 000 000 000 -99 -99 -99 000 000 000 000 000 000 001 000 000 001 000 000 000 000 000 000 000 000 000
000 -99 -99 -99 -99 000 000 000 000 -99 -99 -99 -99 000 000 000 000 000 000 000 000 000 000 000 000 000 000 000 000 000 000
000 000 000 -99 -99 000 000 000 000 000 -99 -99 -99 000 000 000 000 000 000 -99 000 000 000 000 000 000 000 000 000 000 -99
000 000 000 -99 -99 -99 000 000 000 000 -99 -99 -99 000 000 000 000 000 000 -99 000 000 000 000 000 000 000 000 000 000 -99
000 000 000 000 000 000 000 000 000 -99 000 000 -99 -99 000 000 000 000 -99 -99 -99 000 000 -99 -99 -99 -99 -99 -99 -99 -99
000 000 000 000 000 000 -99 000 000 -99 -99 -99 -99 -99 000 000 000 000 000 000 -99 -99 000 -99 -99 -99 -99 -99 -99 -99 -99
000 000 000 000 000 000 000 000 000 -99 -99 -99 -99 -99 000 000 000 000 000 000 000 000 000 -99 -99 -99 -99 -99 -99 -99 -99
000 000 000 000 000 000 000 000 000 000 -99 -99 -99 -99 -99 -99 000 000 000 000 000 000 000 -99 -99 -99 -99 -99 -99 -99 -99
000 000 000 000 000 000 000 000 000 -99 -99 -99 000 -99 -99 -99 000 000 000 000 000 000 000 -99 -99 -99 -99 -99 -99 -99 000
000 000 000 000 000 000 000 000 000 000 -99 -99 000 000 -99 000 000 000 000 000 000 000 000 -99 -99 -99 -99 -99 -99 -99 000
000 000 000 000 000 000 000 000 000 000 -99 -99 000 000 000 000 000 000 000 000 -99 -99 -99 -99 -99 -99 -99 -99 -99 -99 000
000 000 000 000 000 000 000 000 000 000 -99 -99 -99 -99 000 000 000 000 -99 000 000 000 000 -99 -99 -99 -99 -99 -99 -99 000
000 000 000 000 000 000 000 000 000 -99 -99 -99 -99 -99 000 000 000 000 000 000 000 000 000 -99 -99 -99 -99 -99 -99 000 000
000 000 000 000 000 000 000 000 000 -99 -99 -99 -99 -99 000 000 000 000 000 000 001 001 003 002 002 004 -99 -99 -99 000 000
000 000 000 -99 000 000 000 000 000 000 -99 -99 -99 -99 000 000 000 000 000 000 001 003 002 003 006 006 001 -99 -99 -99 -99
-99 -99 -99 -99 -99 -99 000 000 000 000 -99 -99 -99 000 000 000 000 000 000 000 000 002 001 003 007 007 001 -99 -99 -99 -99
-99 000 -99 -99 -99 -99 -99 -99 -99 000 000 000 000 000 000 000 000 000 000 000 000 000 001 004 009 003 000 -99 -99 -99 -99
000 000 000 -99 -99 -99 -99 -99 000 000 000 000 000 -99 -99 -99 000 000 000 000 000 000 000 005 006 000 000 -99 -99 -99 -99
000 000 000 000 -99 -99 -99 000 000 000 000 -99 -99 -99 -99 -99 -99 -99 -99 000 -99 000 000 003 003 000 000 000 000 000 -99
000 000 000 000 000 000 000 000 000 000 000 -99 -99 000 000 -99 -99 -99 -99 000 -99 000 000 001 001 000 000 000 000 000 -99
000 000 000 000 000 000 000 000 -99 000 -99 -99 000 000 000 -99 -99 -99 -99 -99 -99 000 000 000 000 000 000 000 000 000 -99
000 000 000 000 000 000 000 000 -99 -99 000 -99 000 000 000 -99 -99 -99 -99 000 000 000 000 000 000 000 000 000 000 000 -99
000 000 000 000 000 000 000 -99 000 000 000 000 000 000 000 -99 -99 -99 -99 000 000 000 000 000 000 000 -99 000 000 -99 -99
000 000 000 000 000 000 -99 000 000 000 000 -99 -99 -99 -99 000 000 000 000 000 000 000 -99 000 000 000 000 000 000 -99 -99
000 000 000 000 000 000 000 000 000 -99 000 000 -99 -99 -99 000 000 000 000 000 -99 -99 -99 -99 000 000 -99 000 000 -99 -99
000 000 000 000 000 000 000 -99 -99 000 000 -99 -99 000 000 000 000 000 000 000 -99 -99 -99 -99 -99 000 000 -99 -99 -99 -99
000 000 000 000 000 000 000 000 000 000 000 000 -99 000 000 000 000 000 000 000 -99 -99 -99 -99 -99 000 -99 -99 -99 -99 -99
000 000 -99 000 000 000 000 000 000 000 000 000 000 000 000 000 000 000 000 000 -99 -99 -99 -99 -99 000 -99 -99 -99 -99 -99
000 000 -99 -99 000 000 001 001 002 002 000 000 000 000 000 000 000 000 000 000 000 -99 -99 -99 000 000 -99 -99 -99 -99 -99
000 -99 -99 -99 000 003 005 004 016 002 000 000 000 000 000 000 000 000 000 000 -99 -99 -99 -99 000 -99 -99 -99 -99 -99 -99
000 -99 -99 000 000 006 005 025 040 005 001 000 000 000 000 000 -99 -99 000 -99 -99 -99 -99 -99 -99 -99 -99 -99 -99 -99 000
000 -99 000 000 000 005 030 068 042 013 005 002 001 000 000 000 -99 000 000 -99 -99 -99 -99 -99 -99 -99 -99 -99 -99 -99 -99
000 000 000 000 001 004 040 064 040 016 013 009 006 000 000 000 000 000 -99 -99 -99 000 000 -99 -99 -99 -99 -99 000 000 -99
000 000 000 000 001 003 029 025 012 023 031 018 002 011 006 001 000 000 -99 000 -99 -99 000 -99 -99 -99 -99 -99 000 -99 -99
000 001 001 001 002 002 002 003 015 028 029 007 010 054 009 001 000 000 000 000 000 000 -99 -99 -99 -99 -99 -99 -99 -99 -99
000 000 000 000 001 001 001 001 008 017 010 004 034 129 041 002 000 -99 -99 000 000 000 -99 -99 -99 -99 -99 -99 -99 -99 -99
000 000 000 000 001 000 000 001 003 013 006 011 089 089 031 000 000 -99 000 000 000 -99 -99 -99 -99 -99 -99 -99 -99 -99 -99
-99 000 000 000 000 000 000 000 000 003 003 005 035 087 009 000 000 000 000 000 000 -99 -99 -99 -99 -99 -99 -99 -99 -99 -99
-99 -99 000 000 000 000 000 000 000 001 003 009 035 031 010 001 000 000 000 -99 -99 -99 -99 -99 -99 -99 -99 -99 -99 -99 -99
-99 -99 000 000 000 000 000 000 000 005 010 027 051 034 011 000 000 000 -99 -99 -99 -99 -99 -99 -99 -99 -99 -99 -99 -99 -99
